[[12, 40, 17, 51, 3, 16, 24, 49, 63, 23, 56, 41, 43, 42, 64, 22, 62, 73, 33, 6, 2, 30, 74, 28, 61], [21, 48, 47, 36, 69, 71, 60, 70, 20, 37, 5, 15, 57, 13, 27, 29, 45, 4, 68, 75, 76, 26, 67, 34, 46, 52, 8, 54, 19], [35, 7, 53, 14, 59, 11, 66, 65, 38, 58, 72, 10, 31, 39, 9, 25, 55, 18, 50, 32, 44]]